n = 37;
lu = [|-9, 191
      |-689, -424
      |210, 998
      |-208, 896
      |-236, 201
      |-1331, 992
      |-349, 1340
      |-1294, 430
      |-756, -734
      |-683, -63
      |-315, 1312
      |1022, 1173
      |-1126, -879
      |-1234, 1038
      |-215, 402
      |-1072, -485
      |106, 577
      |-857, 905
      |-1294, -863
      |-965, -781
      |-1150, -641
      |-278, -68
      |-447, 1170
      |-1263, 1122
      |-624, 997
      |-1134, 412
      |-135, 267
      |-932, -772
      |-986, 1365
      |-1281, 298
      |1319, 1348
      |248, 651
      |-1281, -426
      |-1018, -817
      |-1051, 508
      |276, 374
      |-224, 811|];
